12 33
1 2 0
1 3 1
1 4 1
1 5 1
1 6 0
1 7 1
1 8 0
1 9 0
1 10 1
1 11 0
1 12 1
2 3 0
2 4 1
2 5 0
2 6 0
2 7 0
2 8 1
2 9 0
2 10 1
2 11 0
2 12 0
3 4 1
3 5 0
3 6 0
3 7 1
3 8 0
3 9 0
3 10 1
3 11 1
3 12 1
4 5 0
4 6 1
4 7 0
4 8 0
4 9 1
4 10 1
4 11 1
4 12 1
5 6 0
5 7 1
5 8 0
5 9 1
5 10 0
5 11 0
5 12 1
6 7 1
6 8 1
6 9 0
6 10 0
6 11 1
6 12 0
7 8 1
7 9 0
7 10 0
7 11 0
7 12 1
8 9 1
8 10 1
8 11 1
8 12 0
9 10 0
9 11 1
9 12 0
10 11 1
10 12 0
11 12 1
